Minimize
	value: tt

Subject to
tt + 2000 s_1_1 > 0
tt - t_1_1 - 2000.000000 s_1_1 > -1981.162678
tt + 2000 s_2_1 > 0
tt - t_2_1 - 2000.000000 s_2_1 > -1988.701600
tt + 2000 s_1_2 > 0
tt - t_1_2 - 2000.000000 s_1_2 > -1968.392800
tt + 2000 s_2_2 > 0
tt - t_2_2 - 2000.000000 s_2_2 > -1980.947700
tt + 2000 s_1_3 > 0
tt - t_1_3 - 2000.000000 s_1_3 > -1996.272100
tt + 2000 s_2_3 > 0
tt - t_2_3 - 2000.000000 s_2_3 > -1996.728600
tt + 2000 s_1_4 > 0
tt - t_1_4 - 2000.000000 s_1_4 > -1992.103700
tt + 2000 s_2_4 > 0
tt - t_2_4 - 2000.000000 s_2_4 > -1995.570300
tt + 2000 s_1_5 > 0
tt - t_1_5 - 2048.000000 s_1_5 + 48.000000 s_1_3 > -1999.802500
tt + 2000 s_2_5 > 0
tt - t_2_5 - 2048.000000 s_2_5 + 48.000000 s_2_3 > -1998.684400
s_1_1 + s_2_1  = 1
s_1_2 + s_2_2  = 1
s_1_3 + s_2_3  = 1
s_1_4 + s_2_4  = 1
s_1_5 + s_2_5  = 1
t_1_1 - t_1_2 + 2000.000000 u_1_1_2 > 31.607200
t_1_2 - t_1_1 - 2000.000000 u_1_1_2 > -1981.162678
t_2_1 - t_2_2 + 2000.000000 u_2_1_2 > 19.052300
t_2_2 - t_2_1 - 2000.000000 u_2_1_2 > -1988.701600
t_1_1 - t_1_3 + 2000.000000 u_1_1_3 > 3.727900
t_1_3 - t_1_1 - 2000.000000 u_1_1_3 > -1981.162678
t_2_1 - t_2_3 + 2000.000000 u_2_1_3 > 3.271400
t_2_3 - t_2_1 - 2000.000000 u_2_1_3 > -1988.701600
t_1_1 - t_1_4 + 2000.000000 u_1_1_4 > 7.896300
t_1_4 - t_1_1 - 2000.000000 u_1_1_4 > -1981.162678
t_2_1 - t_2_4 + 2000.000000 u_2_1_4 > 4.429700
t_2_4 - t_2_1 - 2000.000000 u_2_1_4 > -1988.701600
t_1_5 - t_1_1 - 2000.000000 s_1_1 > -1977.521808
t_1_5 - t_2_1 - 2000.000000 s_2_1 > -1983.046610
t_2_5 - t_1_1 - 2000.000000 s_1_1 > -1977.521808
t_2_5 - t_2_1 - 2000.000000 s_2_1 > -1983.046610
t_1_2 - t_1_1 + 2000.000000 u_1_2_1 > 18.837322
t_1_1 - t_1_2 - 2000.000000 u_1_2_1 > -1968.392800
t_2_2 - t_2_1 + 2000.000000 u_2_2_1 > 11.298400
t_2_1 - t_2_2 - 2000.000000 u_2_2_1 > -1980.947700
t_1_2 - t_1_3 + 2000.000000 u_1_2_3 > 3.727900
t_1_3 - t_1_2 - 2000.000000 u_1_2_3 > -1968.392800
t_2_2 - t_2_3 + 2000.000000 u_2_2_3 > 3.271400
t_2_3 - t_2_2 - 2000.000000 u_2_2_3 > -1980.947700
t_1_2 - t_1_4 + 2000.000000 u_1_2_4 > 7.896300
t_1_4 - t_1_2 - 2000.000000 u_1_2_4 > -1968.392800
t_2_2 - t_2_4 + 2000.000000 u_2_2_4 > 4.429700
t_2_4 - t_2_2 - 2000.000000 u_2_2_4 > -1980.947700
t_1_5 - t_1_2 - 2000.000000 s_1_2 > -1964.751930
t_1_5 - t_2_2 - 2000.000000 s_2_2 > -1975.292710
t_2_5 - t_1_2 - 2000.000000 s_1_2 > -1964.751930
t_2_5 - t_2_2 - 2000.000000 s_2_2 > -1975.292710
t_1_3 - t_1_1 + 2000.000000 u_1_3_1 > 18.837322
t_1_1 - t_1_3 - 2000.000000 u_1_3_1 > -1996.272100
t_2_3 - t_2_1 + 2000.000000 u_2_3_1 > 11.298400
t_2_1 - t_2_3 - 2000.000000 u_2_3_1 > -1996.728600
t_1_3 - t_1_2 + 2000.000000 u_1_3_2 > 31.607200
t_1_2 - t_1_3 - 2000.000000 u_1_3_2 > -1996.272100
t_2_3 - t_2_2 + 2000.000000 u_2_3_2 > 19.052300
t_2_2 - t_2_3 - 2000.000000 u_2_3_2 > -1996.728600
t_1_3 - t_1_4 + 2000.000000 u_1_3_4 > 7.896300
t_1_4 - t_1_3 - 2000.000000 u_1_3_4 > -1996.272100
t_2_3 - t_2_4 + 2000.000000 u_2_3_4 > 4.429700
t_2_4 - t_2_3 - 2000.000000 u_2_3_4 > -1996.728600
t_1_5 - t_1_3 - 2000.000000 s_1_3 > -1992.631230
t_1_5 - t_2_3 - 2000.000000 s_2_3 > -1991.073610
t_2_5 - t_1_3 - 2000.000000 s_1_3 > -1992.631230
t_2_5 - t_2_3 - 2000.000000 s_2_3 > -1991.073610
t_1_4 - t_1_1 + 2000.000000 u_1_4_1 > 18.837322
t_1_1 - t_1_4 - 2000.000000 u_1_4_1 > -1992.103700
t_2_4 - t_2_1 + 2000.000000 u_2_4_1 > 11.298400
t_2_1 - t_2_4 - 2000.000000 u_2_4_1 > -1995.570300
t_1_4 - t_1_2 + 2000.000000 u_1_4_2 > 31.607200
t_1_2 - t_1_4 - 2000.000000 u_1_4_2 > -1992.103700
t_2_4 - t_2_2 + 2000.000000 u_2_4_2 > 19.052300
t_2_2 - t_2_4 - 2000.000000 u_2_4_2 > -1995.570300
t_1_4 - t_1_3 + 2000.000000 u_1_4_3 > 3.727900
t_1_3 - t_1_4 - 2000.000000 u_1_4_3 > -1992.103700
t_2_4 - t_2_3 + 2000.000000 u_2_4_3 > 3.271400
t_2_3 - t_2_4 - 2000.000000 u_2_4_3 > -1995.570300
t_1_5 - t_1_4 - 2000.000000 s_1_4 > -1988.462830
t_1_5 - t_2_4 - 2000.000000 s_2_4 > -1989.915310
t_2_5 - t_1_4 - 2000.000000 s_1_4 > -1988.462830
t_2_5 - t_2_4 - 2000.000000 s_2_4 > -1989.915310
t_1_5 - t_1_1 - 2000.000000 s_1_1 > -1977.521808
t_1_5 - t_2_1 - 2000.000000 s_2_1 > -1983.046610
t_2_5 - t_1_1 - 2000.000000 s_1_1 > -1977.521808
t_2_5 - t_2_1 - 2000.000000 s_2_1 > -1983.046610
t_1_5 - t_1_2 - 2000.000000 s_1_2 > -1964.751930
t_1_5 - t_2_2 - 2000.000000 s_2_2 > -1975.292710
t_2_5 - t_1_2 - 2000.000000 s_1_2 > -1964.751930
t_2_5 - t_2_2 - 2000.000000 s_2_2 > -1975.292710
t_1_5 - t_1_3 - 2000.000000 s_1_3 > -1992.631230
t_1_5 - t_2_3 - 2000.000000 s_2_3 > -1991.073610
t_2_5 - t_1_3 - 2000.000000 s_1_3 > -1992.631230
t_2_5 - t_2_3 - 2000.000000 s_2_3 > -1991.073610
t_1_5 - t_1_4 - 2000.000000 s_1_4 > -1988.462830
t_1_5 - t_2_4 - 2000.000000 s_2_4 > -1989.915310
t_2_5 - t_1_4 - 2000.000000 s_1_4 > -1988.462830
t_2_5 - t_2_4 - 2000.000000 s_2_4 > -1989.915310
Binary
s_1_1
s_2_1
s_1_2
s_2_2
s_1_3
s_2_3
s_1_4
s_2_4
s_1_5
s_2_5
u_1_1_2
u_2_1_2
u_1_1_3
u_2_1_3
u_1_1_4
u_2_1_4
u_1_2_1
u_2_2_1
u_1_2_3
u_2_2_3
u_1_2_4
u_2_2_4
u_1_3_1
u_2_3_1
u_1_3_2
u_2_3_2
u_1_3_4
u_2_3_4
u_1_4_1
u_2_4_1
u_1_4_2
u_2_4_2
u_1_4_3
u_2_4_3

End
